4247841433772841582501,11,1,2,015,7,1,2,010,3,1,2,013,5,1,2,05,12,1,2,08,10,1,2,04,8,1,2,06,9,1,2,015,4,1,2,012,12,1,2,011,9,1,2,08,9,1,2,02,14,1,2,06,11,1,2,011,2,1,2,06,9,1,2,05,12,1,2,08,3,1,2,09,8,1,2,011,6,1,2,01,1,1,2,011,4,1,2,01,9,1,2,05,6,1,2,08,6,1,2,07,9,1,2,015,13,1,2,04,9,1,2,06,5,1,2,010,14,1,2,015,13,1,2,013,9,1,2,07,9,1,2,04,9,1,2,012,2,1,2,04,13,1,2,07,1,1,2,05,15,1,2,010,11,1,2,05,9,1,2,010,15,1,2,012,5,1,2,012,14,1,2,010,12,1,2,03,7,1,2,04,9,1,2,010,12,1,2,01,5,1,2,07,5,1,2,015,5,1,2,0